100
128
58
46
10
45
35
50
61
5
2
8
62
57
30
33
25
45
10
45
18
54
24
42
18
15
6
63
20
54
2
1
53
40
62
54
22
3
23
50
39
28
17
5
50
7
29
20
20
22
43
20
63
30
4
15
20
44
34
18
22
22
17
36
24
37
63
19
47
20
21
20
26
16
22
11
16
46
51
58
26
25
27
60
22
36
32
29
2
30
3
18
4
30
36
57
17
2
20
42
29
30